examples/con/graph-20-50.param
$ generated by rg.pl with seed 50
letting n be 20
$ 33 edges
letting E be {{1,14},{15,17},{10,15},{7,15},{8,20},{13,19},{9,12},{8,10},{1,20},{1,4},{5,12},{2,9},{3,12},{16,20},{11,16},{9,15},{8,12},{7,11},{1,8},{6,13},{3,11},{5,6},{9,14},{13,17},{3,20},{9,18},{4,13},{5,10},{8,16},{10,12},{7,20},{3,14},{2,13}}
